r = [
0,6,26,45,45,33,33,62,37,10,30,0
];
p = [
0,4,6,22,17,6,12,30,13,27,8,0
];
e = [
0,20,15,9,3,14,2,13,17,11,20,0
];
d = [
0,63,107,92,101,83,107,130,102,101,90,145
];
d_bar = [
0,65,110,103,110,86,113,145,109,115,94,145
];
w = [
0,10,5,0.818181818,0.333333333,4.666666667,0.333333333,0.866666667,2.428571429,0.785714286,5,0
];
